1139.0 13544.0 3379.0 
1140.0 13672.0 3272.0 
1138.0 13906.0 3497.0 
1166.0 13540.0 3143.0 
1153.0 13542.0 3128.0 
1186.0 13351.0 2907.0 
1170.0 13498.0 3253.0 
1137.0 13889.0 3856.0 
1167.0 13248.0 3363.0 
1149.0 13580.0 3361.0 
1134.0 13924.0 3793.0 
1121.0 14100.0 3955.0 
1181.0 13349.0 2912.0 
1198.0 13250.0 3046.0 
1125.0 14119.0 3923.0 
1179.0 13305.0 2925.0 
1126.0 13951.0 3820.0 
1120.0 14120.0 3971.0 
1131.0 13854.0 4045.0 
1138.0 13780.0 3518.0 
1212.0 13123.0 2750.0 
1140.0 13656.0 3318.0 
1140.0 13649.0 3367.0 
1147.0 13614.0 3194.0 
1179.0 13305.0 2925.0 
1178.0 13615.0 3086.0 
1165.0 13530.0 3374.0 
1137.0 13923.0 3842.0 
1200.0 13158.0 2787.0 
